21
2 3 7 
2 39 10 
3 23 42 48 
3 27 46 9 
3 17 25 20 
3 36 50 8 
3 47 11 14 
2 52 49 
3 32 38 55 
3 34 21 29 
2 19 22 
3 30 53 40 
3 41 33 28 
2 54 59 
2 18 43 
3 60 57 26 
2 44 4 
2 24 13 
3 1 2 51 
3 31 5 35 
3 58 6 12 
